LatticeConstant 1.0 Ang
%block LatticeVectors
     36.2171823863  -1.2300000000   0.0000000000
     19.1738024398  30.7500000000   0.0000000000
      0.0000000000   0.0000000000  40.0000000000
%endblock LatticeVectors

NumberOfAtoms 868
NumberOfSpecies 1

%block ChemicalSpeciesLabel
1  6   C
%endblock ChemicalSpeciesLabel

AtomicCoordinatesFormat Ang

%block AtomicCoordinatesAndAtomicSpecies
      1.4202816622	   0.0000000000	  18.3250000000	 1
      5.6811266488	   0.0000000000	  18.3250000000	 1
      9.9419716354	   0.0000000000	  18.3250000000	 1
     14.2028166221	   0.0000000000	  18.3250000000	 1
     18.4636616087	   0.0000000000	  18.3250000000	 1
     22.7245065953	   0.0000000000	  18.3250000000	 1
     26.9853515819	   0.0000000000	  18.3250000000	 1
     31.2461965685	   0.0000000000	  18.3250000000	 1
     35.5070415552	   0.0000000000	  18.3250000000	 1
      3.5507041555	   1.2300000000	  18.3250000000	 1
      7.8115491421	   1.2300000000	  18.3250000000	 1
     12.0723941288	   1.2300000000	  18.3250000000	 1
     16.3332391154	   1.2300000000	  18.3250000000	 1
     20.5940841020	   1.2300000000	  18.3250000000	 1
     24.8549290886	   1.2300000000	  18.3250000000	 1
     29.1157740752	   1.2300000000	  18.3250000000	 1
     33.3766190619	   1.2300000000	  18.3250000000	 1
     37.6374640485	   1.2300000000	  18.3250000000	 1
      5.6811266488	   2.4600000000	  18.3250000000	 1
      9.9419716354	   2.4600000000	  18.3250000000	 1
     14.2028166221	   2.4600000000	  18.3250000000	 1
     18.4636616087	   2.4600000000	  18.3250000000	 1
     22.7245065953	   2.4600000000	  18.3250000000	 1
     26.9853515819	   2.4600000000	  18.3250000000	 1
     31.2461965685	   2.4600000000	  18.3250000000	 1
     35.5070415552	   2.4600000000	  18.3250000000	 1
      3.5507041555	   3.6900000000	  18.3250000000	 1
      7.8115491421	   3.6900000000	  18.3250000000	 1
     12.0723941288	   3.6900000000	  18.3250000000	 1
     16.3332391154	   3.6900000000	  18.3250000000	 1
     20.5940841020	   3.6900000000	  18.3250000000	 1
     24.8549290886	   3.6900000000	  18.3250000000	 1
     29.1157740752	   3.6900000000	  18.3250000000	 1
     33.3766190619	   3.6900000000	  18.3250000000	 1
     37.6374640485	   3.6900000000	  18.3250000000	 1
      5.6811266488	   4.9200000000	  18.3250000000	 1
      9.9419716354	   4.9200000000	  18.3250000000	 1
     14.2028166221	   4.9200000000	  18.3250000000	 1
     18.4636616087	   4.9200000000	  18.3250000000	 1
     22.7245065953	   4.9200000000	  18.3250000000	 1
     26.9853515819	   4.9200000000	  18.3250000000	 1
     31.2461965685	   4.9200000000	  18.3250000000	 1
     35.5070415552	   4.9200000000	  18.3250000000	 1
     39.7678865418	   4.9200000000	  18.3250000000	 1
      7.8115491421	   6.1500000000	  18.3250000000	 1
     12.0723941288	   6.1500000000	  18.3250000000	 1
     16.3332391154	   6.1500000000	  18.3250000000	 1
     20.5940841020	   6.1500000000	  18.3250000000	 1
     24.8549290886	   6.1500000000	  18.3250000000	 1
     29.1157740752	   6.1500000000	  18.3250000000	 1
     33.3766190619	   6.1500000000	  18.3250000000	 1
     37.6374640485	   6.1500000000	  18.3250000000	 1
      5.6811266488	   7.3800000000	  18.3250000000	 1
      9.9419716354	   7.3800000000	  18.3250000000	 1
     14.2028166221	   7.3800000000	  18.3250000000	 1
     18.4636616087	   7.3800000000	  18.3250000000	 1
     22.7245065953	   7.3800000000	  18.3250000000	 1
     26.9853515819	   7.3800000000	  18.3250000000	 1
     31.2461965685	   7.3800000000	  18.3250000000	 1
     35.5070415552	   7.3800000000	  18.3250000000	 1
     39.7678865418	   7.3800000000	  18.3250000000	 1
      7.8115491421	   8.6100000000	  18.3250000000	 1
     12.0723941288	   8.6100000000	  18.3250000000	 1
     16.3332391154	   8.6100000000	  18.3250000000	 1
     20.5940841020	   8.6100000000	  18.3250000000	 1
     24.8549290886	   8.6100000000	  18.3250000000	 1
     29.1157740752	   8.6100000000	  18.3250000000	 1
     33.3766190619	   8.6100000000	  18.3250000000	 1
     37.6374640485	   8.6100000000	  18.3250000000	 1
     41.8983090351	   8.6100000000	  18.3250000000	 1
      9.9419716354	   9.8400000000	  18.3250000000	 1
     14.2028166221	   9.8400000000	  18.3250000000	 1
     18.4636616087	   9.8400000000	  18.3250000000	 1
     22.7245065953	   9.8400000000	  18.3250000000	 1
     26.9853515819	   9.8400000000	  18.3250000000	 1
     31.2461965685	   9.8400000000	  18.3250000000	 1
     35.5070415552	   9.8400000000	  18.3250000000	 1
     39.7678865418	   9.8400000000	  18.3250000000	 1
      7.8115491421	  11.0700000000	  18.3250000000	 1
     12.0723941288	  11.0700000000	  18.3250000000	 1
     16.3332391154	  11.0700000000	  18.3250000000	 1
     20.5940841020	  11.0700000000	  18.3250000000	 1
     24.8549290886	  11.0700000000	  18.3250000000	 1
     29.1157740752	  11.0700000000	  18.3250000000	 1
     33.3766190619	  11.0700000000	  18.3250000000	 1
     37.6374640485	  11.0700000000	  18.3250000000	 1
     41.8983090351	  11.0700000000	  18.3250000000	 1
      9.9419716354	  12.3000000000	  18.3250000000	 1
     14.2028166221	  12.3000000000	  18.3250000000	 1
     18.4636616087	  12.3000000000	  18.3250000000	 1
     22.7245065953	  12.3000000000	  18.3250000000	 1
     26.9853515819	  12.3000000000	  18.3250000000	 1
     31.2461965685	  12.3000000000	  18.3250000000	 1
     35.5070415552	  12.3000000000	  18.3250000000	 1
     39.7678865418	  12.3000000000	  18.3250000000	 1
     44.0287315284	  12.3000000000	  18.3250000000	 1
     12.0723941288	  13.5300000000	  18.3250000000	 1
     16.3332391154	  13.5300000000	  18.3250000000	 1
     20.5940841020	  13.5300000000	  18.3250000000	 1
     24.8549290886	  13.5300000000	  18.3250000000	 1
     29.1157740752	  13.5300000000	  18.3250000000	 1
     33.3766190619	  13.5300000000	  18.3250000000	 1
     37.6374640485	  13.5300000000	  18.3250000000	 1
     41.8983090351	  13.5300000000	  18.3250000000	 1
      9.9419716354	  14.7600000000	  18.3250000000	 1
     14.2028166221	  14.7600000000	  18.3250000000	 1
     18.4636616087	  14.7600000000	  18.3250000000	 1
     22.7245065953	  14.7600000000	  18.3250000000	 1
     26.9853515819	  14.7600000000	  18.3250000000	 1
     31.2461965685	  14.7600000000	  18.3250000000	 1
     35.5070415552	  14.7600000000	  18.3250000000	 1
     39.7678865418	  14.7600000000	  18.3250000000	 1
     44.0287315284	  14.7600000000	  18.3250000000	 1
     12.0723941288	  15.9900000000	  18.3250000000	 1
     16.3332391154	  15.9900000000	  18.3250000000	 1
     20.5940841020	  15.9900000000	  18.3250000000	 1
     24.8549290886	  15.9900000000	  18.3250000000	 1
     29.1157740752	  15.9900000000	  18.3250000000	 1
     33.3766190619	  15.9900000000	  18.3250000000	 1
     37.6374640485	  15.9900000000	  18.3250000000	 1
     41.8983090351	  15.9900000000	  18.3250000000	 1
     46.1591540217	  15.9900000000	  18.3250000000	 1
     14.2028166221	  17.2200000000	  18.3250000000	 1
     18.4636616087	  17.2200000000	  18.3250000000	 1
     22.7245065953	  17.2200000000	  18.3250000000	 1
     26.9853515819	  17.2200000000	  18.3250000000	 1
     31.2461965685	  17.2200000000	  18.3250000000	 1
     35.5070415552	  17.2200000000	  18.3250000000	 1
     39.7678865418	  17.2200000000	  18.3250000000	 1
     44.0287315284	  17.2200000000	  18.3250000000	 1
     12.0723941288	  18.4500000000	  18.3250000000	 1
     16.3332391154	  18.4500000000	  18.3250000000	 1
     20.5940841020	  18.4500000000	  18.3250000000	 1
     24.8549290886	  18.4500000000	  18.3250000000	 1
     29.1157740752	  18.4500000000	  18.3250000000	 1
     33.3766190619	  18.4500000000	  18.3250000000	 1
     37.6374640485	  18.4500000000	  18.3250000000	 1
     41.8983090351	  18.4500000000	  18.3250000000	 1
     46.1591540217	  18.4500000000	  18.3250000000	 1
     14.2028166221	  19.6800000000	  18.3250000000	 1
     18.4636616087	  19.6800000000	  18.3250000000	 1
     22.7245065953	  19.6800000000	  18.3250000000	 1
     26.9853515819	  19.6800000000	  18.3250000000	 1
     31.2461965685	  19.6800000000	  18.3250000000	 1
     35.5070415552	  19.6800000000	  18.3250000000	 1
     39.7678865418	  19.6800000000	  18.3250000000	 1
     44.0287315284	  19.6800000000	  18.3250000000	 1
     48.2895765150	  19.6800000000	  18.3250000000	 1
     16.3332391154	  20.9100000000	  18.3250000000	 1
     20.5940841020	  20.9100000000	  18.3250000000	 1
     24.8549290886	  20.9100000000	  18.3250000000	 1
     29.1157740752	  20.9100000000	  18.3250000000	 1
     33.3766190619	  20.9100000000	  18.3250000000	 1
     37.6374640485	  20.9100000000	  18.3250000000	 1
     41.8983090351	  20.9100000000	  18.3250000000	 1
     46.1591540217	  20.9100000000	  18.3250000000	 1
     14.2028166221	  22.1400000000	  18.3250000000	 1
     18.4636616087	  22.1400000000	  18.3250000000	 1
     22.7245065953	  22.1400000000	  18.3250000000	 1
     26.9853515819	  22.1400000000	  18.3250000000	 1
     31.2461965685	  22.1400000000	  18.3250000000	 1
     35.5070415552	  22.1400000000	  18.3250000000	 1
     39.7678865418	  22.1400000000	  18.3250000000	 1
     44.0287315284	  22.1400000000	  18.3250000000	 1
     48.2895765150	  22.1400000000	  18.3250000000	 1
     16.3332391154	  23.3700000000	  18.3250000000	 1
     20.5940841020	  23.3700000000	  18.3250000000	 1
     24.8549290886	  23.3700000000	  18.3250000000	 1
     29.1157740752	  23.3700000000	  18.3250000000	 1
     33.3766190619	  23.3700000000	  18.3250000000	 1
     37.6374640485	  23.3700000000	  18.3250000000	 1
     41.8983090351	  23.3700000000	  18.3250000000	 1
     46.1591540217	  23.3700000000	  18.3250000000	 1
     50.4199990083	  23.3700000000	  18.3250000000	 1
     18.4636616087	  24.6000000000	  18.3250000000	 1
     22.7245065953	  24.6000000000	  18.3250000000	 1
     26.9853515819	  24.6000000000	  18.3250000000	 1
     31.2461965685	  24.6000000000	  18.3250000000	 1
     35.5070415552	  24.6000000000	  18.3250000000	 1
     39.7678865418	  24.6000000000	  18.3250000000	 1
     44.0287315284	  24.6000000000	  18.3250000000	 1
     48.2895765150	  24.6000000000	  18.3250000000	 1
     16.3332391154	  25.8300000000	  18.3250000000	 1
     20.5940841020	  25.8300000000	  18.3250000000	 1
     24.8549290886	  25.8300000000	  18.3250000000	 1
     29.1157740752	  25.8300000000	  18.3250000000	 1
     33.3766190619	  25.8300000000	  18.3250000000	 1
     37.6374640485	  25.8300000000	  18.3250000000	 1
     41.8983090351	  25.8300000000	  18.3250000000	 1
     46.1591540217	  25.8300000000	  18.3250000000	 1
     50.4199990083	  25.8300000000	  18.3250000000	 1
     18.4636616087	  27.0600000000	  18.3250000000	 1
     22.7245065953	  27.0600000000	  18.3250000000	 1
     26.9853515819	  27.0600000000	  18.3250000000	 1
     31.2461965685	  27.0600000000	  18.3250000000	 1
     35.5070415552	  27.0600000000	  18.3250000000	 1
     39.7678865418	  27.0600000000	  18.3250000000	 1
     44.0287315284	  27.0600000000	  18.3250000000	 1
     48.2895765150	  27.0600000000	  18.3250000000	 1
     52.5504215016	  27.0600000000	  18.3250000000	 1
     20.5940841020	  28.2900000000	  18.3250000000	 1
     24.8549290886	  28.2900000000	  18.3250000000	 1
     29.1157740752	  28.2900000000	  18.3250000000	 1
     33.3766190619	  28.2900000000	  18.3250000000	 1
     37.6374640485	  28.2900000000	  18.3250000000	 1
     41.8983090351	  28.2900000000	  18.3250000000	 1
     46.1591540217	  28.2900000000	  18.3250000000	 1
     50.4199990083	  28.2900000000	  18.3250000000	 1
     18.4636616087	  29.5200000000	  18.3250000000	 1
     22.7245065953	  29.5200000000	  18.3250000000	 1
     26.9853515819	  29.5200000000	  18.3250000000	 1
     31.2461965685	  29.5200000000	  18.3250000000	 1
     35.5070415552	  29.5200000000	  18.3250000000	 1
     39.7678865418	  29.5200000000	  18.3250000000	 1
     44.0287315284	  29.5200000000	  18.3250000000	 1
     48.2895765150	  29.5200000000	  18.3250000000	 1
     52.5504215016	  29.5200000000	  18.3250000000	 1
      2.8405633244	   0.0000000000	  18.3250000000	 1
      7.1014083110	   0.0000000000	  18.3250000000	 1
     11.3622532977	   0.0000000000	  18.3250000000	 1
     15.6230982843	   0.0000000000	  18.3250000000	 1
     19.8839432709	   0.0000000000	  18.3250000000	 1
     24.1447882575	   0.0000000000	  18.3250000000	 1
     28.4056332441	   0.0000000000	  18.3250000000	 1
     32.6664782307	   0.0000000000	  18.3250000000	 1
     36.9273232174	   0.0000000000	  18.3250000000	 1
      4.9709858177	   1.2300000000	  18.3250000000	 1
      9.2318308043	   1.2300000000	  18.3250000000	 1
     13.4926757910	   1.2300000000	  18.3250000000	 1
     17.7535207776	   1.2300000000	  18.3250000000	 1
     22.0143657642	   1.2300000000	  18.3250000000	 1
     26.2752107508	   1.2300000000	  18.3250000000	 1
     30.5360557374	   1.2300000000	  18.3250000000	 1
     34.7969007241	   1.2300000000	  18.3250000000	 1
      2.8405633244	   2.4600000000	  18.3250000000	 1
      7.1014083110	   2.4600000000	  18.3250000000	 1
     11.3622532977	   2.4600000000	  18.3250000000	 1
     15.6230982843	   2.4600000000	  18.3250000000	 1
     19.8839432709	   2.4600000000	  18.3250000000	 1
     24.1447882575	   2.4600000000	  18.3250000000	 1
     28.4056332441	   2.4600000000	  18.3250000000	 1
     32.6664782307	   2.4600000000	  18.3250000000	 1
     36.9273232174	   2.4600000000	  18.3250000000	 1
      4.9709858177	   3.6900000000	  18.3250000000	 1
      9.2318308043	   3.6900000000	  18.3250000000	 1
     13.4926757910	   3.6900000000	  18.3250000000	 1
     17.7535207776	   3.6900000000	  18.3250000000	 1
     22.0143657642	   3.6900000000	  18.3250000000	 1
     26.2752107508	   3.6900000000	  18.3250000000	 1
     30.5360557374	   3.6900000000	  18.3250000000	 1
     34.7969007241	   3.6900000000	  18.3250000000	 1
     39.0577457107	   3.6900000000	  18.3250000000	 1
      7.1014083110	   4.9200000000	  18.3250000000	 1
     11.3622532977	   4.9200000000	  18.3250000000	 1
     15.6230982843	   4.9200000000	  18.3250000000	 1
     19.8839432709	   4.9200000000	  18.3250000000	 1
     24.1447882575	   4.9200000000	  18.3250000000	 1
     28.4056332441	   4.9200000000	  18.3250000000	 1
     32.6664782307	   4.9200000000	  18.3250000000	 1
     36.9273232174	   4.9200000000	  18.3250000000	 1
      4.9709858177	   6.1500000000	  18.3250000000	 1
      9.2318308043	   6.1500000000	  18.3250000000	 1
     13.4926757910	   6.1500000000	  18.3250000000	 1
     17.7535207776	   6.1500000000	  18.3250000000	 1
     22.0143657642	   6.1500000000	  18.3250000000	 1
     26.2752107508	   6.1500000000	  18.3250000000	 1
     30.5360557374	   6.1500000000	  18.3250000000	 1
     34.7969007241	   6.1500000000	  18.3250000000	 1
     39.0577457107	   6.1500000000	  18.3250000000	 1
      7.1014083110	   7.3800000000	  18.3250000000	 1
     11.3622532977	   7.3800000000	  18.3250000000	 1
     15.6230982843	   7.3800000000	  18.3250000000	 1
     19.8839432709	   7.3800000000	  18.3250000000	 1
     24.1447882575	   7.3800000000	  18.3250000000	 1
     28.4056332441	   7.3800000000	  18.3250000000	 1
     32.6664782307	   7.3800000000	  18.3250000000	 1
     36.9273232174	   7.3800000000	  18.3250000000	 1
     41.1881682040	   7.3800000000	  18.3250000000	 1
      9.2318308043	   8.6100000000	  18.3250000000	 1
     13.4926757910	   8.6100000000	  18.3250000000	 1
     17.7535207776	   8.6100000000	  18.3250000000	 1
     22.0143657642	   8.6100000000	  18.3250000000	 1
     26.2752107508	   8.6100000000	  18.3250000000	 1
     30.5360557374	   8.6100000000	  18.3250000000	 1
     34.7969007241	   8.6100000000	  18.3250000000	 1
     39.0577457107	   8.6100000000	  18.3250000000	 1
      7.1014083110	   9.8400000000	  18.3250000000	 1
     11.3622532977	   9.8400000000	  18.3250000000	 1
     15.6230982843	   9.8400000000	  18.3250000000	 1
     19.8839432709	   9.8400000000	  18.3250000000	 1
     24.1447882575	   9.8400000000	  18.3250000000	 1
     28.4056332441	   9.8400000000	  18.3250000000	 1
     32.6664782307	   9.8400000000	  18.3250000000	 1
     36.9273232174	   9.8400000000	  18.3250000000	 1
     41.1881682040	   9.8400000000	  18.3250000000	 1
      9.2318308043	  11.0700000000	  18.3250000000	 1
     13.4926757910	  11.0700000000	  18.3250000000	 1
     17.7535207776	  11.0700000000	  18.3250000000	 1
     22.0143657642	  11.0700000000	  18.3250000000	 1
     26.2752107508	  11.0700000000	  18.3250000000	 1
     30.5360557374	  11.0700000000	  18.3250000000	 1
     34.7969007241	  11.0700000000	  18.3250000000	 1
     39.0577457107	  11.0700000000	  18.3250000000	 1
     43.3185906973	  11.0700000000	  18.3250000000	 1
     11.3622532977	  12.3000000000	  18.3250000000	 1
     15.6230982843	  12.3000000000	  18.3250000000	 1
     19.8839432709	  12.3000000000	  18.3250000000	 1
     24.1447882575	  12.3000000000	  18.3250000000	 1
     28.4056332441	  12.3000000000	  18.3250000000	 1
     32.6664782307	  12.3000000000	  18.3250000000	 1
     36.9273232174	  12.3000000000	  18.3250000000	 1
     41.1881682040	  12.3000000000	  18.3250000000	 1
      9.2318308043	  13.5300000000	  18.3250000000	 1
     13.4926757910	  13.5300000000	  18.3250000000	 1
     17.7535207776	  13.5300000000	  18.3250000000	 1
     22.0143657642	  13.5300000000	  18.3250000000	 1
     26.2752107508	  13.5300000000	  18.3250000000	 1
     30.5360557374	  13.5300000000	  18.3250000000	 1
     34.7969007241	  13.5300000000	  18.3250000000	 1
     39.0577457107	  13.5300000000	  18.3250000000	 1
     43.3185906973	  13.5300000000	  18.3250000000	 1
     11.3622532977	  14.7600000000	  18.3250000000	 1
     15.6230982843	  14.7600000000	  18.3250000000	 1
     19.8839432709	  14.7600000000	  18.3250000000	 1
     24.1447882575	  14.7600000000	  18.3250000000	 1
     28.4056332441	  14.7600000000	  18.3250000000	 1
     32.6664782307	  14.7600000000	  18.3250000000	 1
     36.9273232174	  14.7600000000	  18.3250000000	 1
     41.1881682040	  14.7600000000	  18.3250000000	 1
     45.4490131906	  14.7600000000	  18.3250000000	 1
     13.4926757910	  15.9900000000	  18.3250000000	 1
     17.7535207776	  15.9900000000	  18.3250000000	 1
     22.0143657642	  15.9900000000	  18.3250000000	 1
     26.2752107508	  15.9900000000	  18.3250000000	 1
     30.5360557374	  15.9900000000	  18.3250000000	 1
     34.7969007241	  15.9900000000	  18.3250000000	 1
     39.0577457107	  15.9900000000	  18.3250000000	 1
     43.3185906973	  15.9900000000	  18.3250000000	 1
     11.3622532977	  17.2200000000	  18.3250000000	 1
     15.6230982843	  17.2200000000	  18.3250000000	 1
     19.8839432709	  17.2200000000	  18.3250000000	 1
     24.1447882575	  17.2200000000	  18.3250000000	 1
     28.4056332441	  17.2200000000	  18.3250000000	 1
     32.6664782307	  17.2200000000	  18.3250000000	 1
     36.9273232174	  17.2200000000	  18.3250000000	 1
     41.1881682040	  17.2200000000	  18.3250000000	 1
     45.4490131906	  17.2200000000	  18.3250000000	 1
     13.4926757910	  18.4500000000	  18.3250000000	 1
     17.7535207776	  18.4500000000	  18.3250000000	 1
     22.0143657642	  18.4500000000	  18.3250000000	 1
     26.2752107508	  18.4500000000	  18.3250000000	 1
     30.5360557374	  18.4500000000	  18.3250000000	 1
     34.7969007241	  18.4500000000	  18.3250000000	 1
     39.0577457107	  18.4500000000	  18.3250000000	 1
     43.3185906973	  18.4500000000	  18.3250000000	 1
     47.5794356839	  18.4500000000	  18.3250000000	 1
     15.6230982843	  19.6800000000	  18.3250000000	 1
     19.8839432709	  19.6800000000	  18.3250000000	 1
     24.1447882575	  19.6800000000	  18.3250000000	 1
     28.4056332441	  19.6800000000	  18.3250000000	 1
     32.6664782307	  19.6800000000	  18.3250000000	 1
     36.9273232174	  19.6800000000	  18.3250000000	 1
     41.1881682040	  19.6800000000	  18.3250000000	 1
     45.4490131906	  19.6800000000	  18.3250000000	 1
     13.4926757910	  20.9100000000	  18.3250000000	 1
     17.7535207776	  20.9100000000	  18.3250000000	 1
     22.0143657642	  20.9100000000	  18.3250000000	 1
     26.2752107508	  20.9100000000	  18.3250000000	 1
     30.5360557374	  20.9100000000	  18.3250000000	 1
     34.7969007241	  20.9100000000	  18.3250000000	 1
     39.0577457107	  20.9100000000	  18.3250000000	 1
     43.3185906973	  20.9100000000	  18.3250000000	 1
     47.5794356839	  20.9100000000	  18.3250000000	 1
     15.6230982843	  22.1400000000	  18.3250000000	 1
     19.8839432709	  22.1400000000	  18.3250000000	 1
     24.1447882575	  22.1400000000	  18.3250000000	 1
     28.4056332441	  22.1400000000	  18.3250000000	 1
     32.6664782307	  22.1400000000	  18.3250000000	 1
     36.9273232174	  22.1400000000	  18.3250000000	 1
     41.1881682040	  22.1400000000	  18.3250000000	 1
     45.4490131906	  22.1400000000	  18.3250000000	 1
     49.7098581772	  22.1400000000	  18.3250000000	 1
     17.7535207776	  23.3700000000	  18.3250000000	 1
     22.0143657642	  23.3700000000	  18.3250000000	 1
     26.2752107508	  23.3700000000	  18.3250000000	 1
     30.5360557374	  23.3700000000	  18.3250000000	 1
     34.7969007241	  23.3700000000	  18.3250000000	 1
     39.0577457107	  23.3700000000	  18.3250000000	 1
     43.3185906973	  23.3700000000	  18.3250000000	 1
     47.5794356839	  23.3700000000	  18.3250000000	 1
     15.6230982843	  24.6000000000	  18.3250000000	 1
     19.8839432709	  24.6000000000	  18.3250000000	 1
     24.1447882575	  24.6000000000	  18.3250000000	 1
     28.4056332441	  24.6000000000	  18.3250000000	 1
     32.6664782307	  24.6000000000	  18.3250000000	 1
     36.9273232174	  24.6000000000	  18.3250000000	 1
     41.1881682040	  24.6000000000	  18.3250000000	 1
     45.4490131906	  24.6000000000	  18.3250000000	 1
     49.7098581772	  24.6000000000	  18.3250000000	 1
     17.7535207776	  25.8300000000	  18.3250000000	 1
     22.0143657642	  25.8300000000	  18.3250000000	 1
     26.2752107508	  25.8300000000	  18.3250000000	 1
     30.5360557374	  25.8300000000	  18.3250000000	 1
     34.7969007241	  25.8300000000	  18.3250000000	 1
     39.0577457107	  25.8300000000	  18.3250000000	 1
     43.3185906973	  25.8300000000	  18.3250000000	 1
     47.5794356839	  25.8300000000	  18.3250000000	 1
     51.8402806705	  25.8300000000	  18.3250000000	 1
     19.8839432709	  27.0600000000	  18.3250000000	 1
     24.1447882575	  27.0600000000	  18.3250000000	 1
     28.4056332441	  27.0600000000	  18.3250000000	 1
     32.6664782307	  27.0600000000	  18.3250000000	 1
     36.9273232174	  27.0600000000	  18.3250000000	 1
     41.1881682040	  27.0600000000	  18.3250000000	 1
     45.4490131906	  27.0600000000	  18.3250000000	 1
     49.7098581772	  27.0600000000	  18.3250000000	 1
     17.7535207776	  28.2900000000	  18.3250000000	 1
     22.0143657642	  28.2900000000	  18.3250000000	 1
     26.2752107508	  28.2900000000	  18.3250000000	 1
     30.5360557374	  28.2900000000	  18.3250000000	 1
     34.7969007241	  28.2900000000	  18.3250000000	 1
     39.0577457107	  28.2900000000	  18.3250000000	 1
     43.3185906973	  28.2900000000	  18.3250000000	 1
     47.5794356839	  28.2900000000	  18.3250000000	 1
     51.8402806705	  28.2900000000	  18.3250000000	 1
     19.8839432709	  29.5200000000	  18.3250000000	 1
     24.1447882575	  29.5200000000	  18.3250000000	 1
     28.4056332441	  29.5200000000	  18.3250000000	 1
     32.6664782307	  29.5200000000	  18.3250000000	 1
     36.9273232174	  29.5200000000	  18.3250000000	 1
     41.1881682040	  29.5200000000	  18.3250000000	 1
     45.4490131906	  29.5200000000	  18.3250000000	 1
     49.7098581772	  29.5200000000	  18.3250000000	 1
     53.9707031638	  29.5200000000	  18.3250000000	 1
      3.6259725385	   0.9862672811	  21.6750000000	 1
      7.8769999100	   0.6971889401	  21.6750000000	 1
     12.1280272814	   0.4081105991	  21.6750000000	 1
     16.3790546529	   0.1190322581	  21.6750000000	 1
     20.6300820243	  -0.1700460829	  21.6750000000	 1
     24.8811093958	  -0.4591244240	  21.6750000000	 1
     29.1321367672	  -0.7482027650	  21.6750000000	 1
     33.3831641386	  -1.0372811060	  21.6750000000	 1
      1.5839085818	   2.3579723502	  21.6750000000	 1
      5.8349359533	   2.0688940092	  21.6750000000	 1
     10.0859633247	   1.7798156682	  21.6750000000	 1
     14.3369906961	   1.4907373272	  21.6750000000	 1
     18.5880180676	   1.2016589862	  21.6750000000	 1
     22.8390454390	   0.9125806452	  21.6750000000	 1
     27.0900728105	   0.6235023041	  21.6750000000	 1
     31.3411001819	   0.3344239631	  21.6750000000	 1
     35.5921275534	   0.0453456221	  21.6750000000	 1
      3.7928719965	   3.4405990783	  21.6750000000	 1
      8.0438993680	   3.1515207373	  21.6750000000	 1
     12.2949267394	   2.8624423963	  21.6750000000	 1
     16.5459541109	   2.5733640553	  21.6750000000	 1
     20.7969814823	   2.2842857143	  21.6750000000	 1
     25.0480088538	   1.9952073733	  21.6750000000	 1
     29.2990362252	   1.7061290323	  21.6750000000	 1
     33.5500635966	   1.4170506912	  21.6750000000	 1
      6.0018354113	   4.5232258065	  21.6750000000	 1
     10.2528627827	   4.2341474654	  21.6750000000	 1
     14.5038901541	   3.9450691244	  21.6750000000	 1
     18.7549175256	   3.6559907834	  21.6750000000	 1
     23.0059448970	   3.3669124424	  21.6750000000	 1
     27.2569722685	   3.0778341014	  21.6750000000	 1
     31.5079996399	   2.7887557604	  21.6750000000	 1
     35.7590270114	   2.4996774194	  21.6750000000	 1
      3.9597714545	   5.8949308756	  21.6750000000	 1
      8.2107988260	   5.6058525346	  21.6750000000	 1
     12.4618261974	   5.3167741935	  21.6750000000	 1
     16.7128535689	   5.0276958525	  21.6750000000	 1
     20.9638809403	   4.7386175115	  21.6750000000	 1
     25.2149083118	   4.4495391705	  21.6750000000	 1
     29.4659356832	   4.1604608295	  21.6750000000	 1
     33.7169630546	   3.8713824885	  21.6750000000	 1
     37.9679904261	   3.5823041475	  21.6750000000	 1
      6.1687348693	   6.9775576037	  21.6750000000	 1
     10.4197622407	   6.6884792627	  21.6750000000	 1
     14.6707896121	   6.3994009217	  21.6750000000	 1
     18.9218169836	   6.1103225806	  21.6750000000	 1
     23.1728443550	   5.8212442396	  21.6750000000	 1
     27.4238717265	   5.5321658986	  21.6750000000	 1
     31.6748990979	   5.2430875576	  21.6750000000	 1
     35.9259264694	   4.9540092166	  21.6750000000	 1
      8.3776982840	   8.0601843318	  21.6750000000	 1
     12.6287256554	   7.7711059908	  21.6750000000	 1
     16.8797530269	   7.4820276498	  21.6750000000	 1
     21.1307803983	   7.1929493088	  21.6750000000	 1
     25.3818077698	   6.9038709677	  21.6750000000	 1
     29.6328351412	   6.6147926267	  21.6750000000	 1
     33.8838625126	   6.3257142857	  21.6750000000	 1
     38.1348898841	   6.0366359447	  21.6750000000	 1
      6.3356343273	   9.4318894009	  21.6750000000	 1
     10.5866616987	   9.1428110599	  21.6750000000	 1
     14.8376890701	   8.8537327189	  21.6750000000	 1
     19.0887164416	   8.5646543779	  21.6750000000	 1
     23.3397438130	   8.2755760369	  21.6750000000	 1
     27.5907711845	   7.9864976959	  21.6750000000	 1
     31.8417985559	   7.6974193548	  21.6750000000	 1
     36.0928259274	   7.4083410138	  21.6750000000	 1
     40.3438532988	   7.1192626728	  21.6750000000	 1
      8.5445977420	  10.5145161290	  21.6750000000	 1
     12.7956251134	  10.2254377880	  21.6750000000	 1
     17.0466524849	   9.9363594470	  21.6750000000	 1
     21.2976798563	   9.6472811060	  21.6750000000	 1
     25.5487072278	   9.3582027650	  21.6750000000	 1
     29.7997345992	   9.0691244240	  21.6750000000	 1
     34.0507619706	   8.7800460829	  21.6750000000	 1
     38.3017893421	   8.4909677419	  21.6750000000	 1
     10.7535611567	  11.5971428571	  21.6750000000	 1
     15.0045885281	  11.3080645161	  21.6750000000	 1
     19.2556158996	  11.0189861751	  21.6750000000	 1
     23.5066432710	  10.7299078341	  21.6750000000	 1
     27.7576706425	  10.4408294931	  21.6750000000	 1
     32.0086980139	  10.1517511521	  21.6750000000	 1
     36.2597253854	   9.8626728111	  21.6750000000	 1
     40.5107527568	   9.5735944700	  21.6750000000	 1
      8.7114972000	  12.9688479263	  21.6750000000	 1
     12.9625245714	  12.6797695853	  21.6750000000	 1
     17.2135519429	  12.3906912442	  21.6750000000	 1
     21.4645793143	  12.1016129032	  21.6750000000	 1
     25.7156066858	  11.8125345622	  21.6750000000	 1
     29.9666340572	  11.5234562212	  21.6750000000	 1
     34.2176614286	  11.2343778802	  21.6750000000	 1
     38.4686888001	  10.9452995392	  21.6750000000	 1
     42.7197161715	  10.6562211982	  21.6750000000	 1
     10.9204606147	  14.0514746544	  21.6750000000	 1
     15.1714879862	  13.7623963134	  21.6750000000	 1
     19.4225153576	  13.4733179724	  21.6750000000	 1
     23.6735427290	  13.1842396313	  21.6750000000	 1
     27.9245701005	  12.8951612903	  21.6750000000	 1
     32.1755974719	  12.6060829493	  21.6750000000	 1
     36.4266248434	  12.3170046083	  21.6750000000	 1
     40.6776522148	  12.0279262673	  21.6750000000	 1
     13.1294240294	  15.1341013825	  21.6750000000	 1
     17.3804514009	  14.8450230415	  21.6750000000	 1
     21.6314787723	  14.5559447005	  21.6750000000	 1
     25.8825061438	  14.2668663594	  21.6750000000	 1
     30.1335335152	  13.9777880184	  21.6750000000	 1
     34.3845608866	  13.6887096774	  21.6750000000	 1
     38.6355882581	  13.3996313364	  21.6750000000	 1
     42.8866156295	  13.1105529954	  21.6750000000	 1
     11.0873600727	  16.5058064516	  21.6750000000	 1
     15.3383874442	  16.2167281106	  21.6750000000	 1
     19.5894148156	  15.9276497696	  21.6750000000	 1
     23.8404421870	  15.6385714286	  21.6750000000	 1
     28.0914695585	  15.3494930876	  21.6750000000	 1
     32.3424969299	  15.0604147465	  21.6750000000	 1