LatticeConstant 1.0 Ang
%block LatticeVectors
     19.1738024398  -1.2300000000   0.0000000000
     10.6521124665  15.9900000000   0.0000000000
      0.0000000000   0.0000000000  40.0000000000
%endblock LatticeVectors

NumberOfAtoms 244
NumberOfSpecies 1

%block ChemicalSpeciesLabel
1  6   C
%endblock ChemicalSpeciesLabel

AtomicCoordinatesFormat Ang

%block AtomicCoordinatesAndAtomicSpecies
      1.4202816622	   0.0000000000	  18.3250000000	 1
      5.6811266488	   0.0000000000	  18.3250000000	 1
      9.9419716354	   0.0000000000	  18.3250000000	 1
     14.2028166221	   0.0000000000	  18.3250000000	 1
     18.4636616087	   0.0000000000	  18.3250000000	 1
      3.5507041555	   1.2300000000	  18.3250000000	 1
      7.8115491421	   1.2300000000	  18.3250000000	 1
     12.0723941288	   1.2300000000	  18.3250000000	 1
     16.3332391154	   1.2300000000	  18.3250000000	 1
     20.5940841020	   1.2300000000	  18.3250000000	 1
      5.6811266488	   2.4600000000	  18.3250000000	 1
      9.9419716354	   2.4600000000	  18.3250000000	 1
     14.2028166221	   2.4600000000	  18.3250000000	 1
     18.4636616087	   2.4600000000	  18.3250000000	 1
      3.5507041555	   3.6900000000	  18.3250000000	 1
      7.8115491421	   3.6900000000	  18.3250000000	 1
     12.0723941288	   3.6900000000	  18.3250000000	 1
     16.3332391154	   3.6900000000	  18.3250000000	 1
     20.5940841020	   3.6900000000	  18.3250000000	 1
      5.6811266488	   4.9200000000	  18.3250000000	 1
      9.9419716354	   4.9200000000	  18.3250000000	 1
     14.2028166221	   4.9200000000	  18.3250000000	 1
     18.4636616087	   4.9200000000	  18.3250000000	 1
     22.7245065953	   4.9200000000	  18.3250000000	 1
      7.8115491421	   6.1500000000	  18.3250000000	 1
     12.0723941288	   6.1500000000	  18.3250000000	 1
     16.3332391154	   6.1500000000	  18.3250000000	 1
     20.5940841020	   6.1500000000	  18.3250000000	 1
      5.6811266488	   7.3800000000	  18.3250000000	 1
      9.9419716354	   7.3800000000	  18.3250000000	 1
     14.2028166221	   7.3800000000	  18.3250000000	 1
     18.4636616087	   7.3800000000	  18.3250000000	 1
     22.7245065953	   7.3800000000	  18.3250000000	 1
      7.8115491421	   8.6100000000	  18.3250000000	 1
     12.0723941288	   8.6100000000	  18.3250000000	 1
     16.3332391154	   8.6100000000	  18.3250000000	 1
     20.5940841020	   8.6100000000	  18.3250000000	 1
     24.8549290886	   8.6100000000	  18.3250000000	 1
      9.9419716354	   9.8400000000	  18.3250000000	 1
     14.2028166221	   9.8400000000	  18.3250000000	 1
     18.4636616087	   9.8400000000	  18.3250000000	 1
     22.7245065953	   9.8400000000	  18.3250000000	 1
      7.8115491421	  11.0700000000	  18.3250000000	 1
     12.0723941288	  11.0700000000	  18.3250000000	 1
     16.3332391154	  11.0700000000	  18.3250000000	 1
     20.5940841020	  11.0700000000	  18.3250000000	 1
     24.8549290886	  11.0700000000	  18.3250000000	 1
      9.9419716354	  12.3000000000	  18.3250000000	 1
     14.2028166221	  12.3000000000	  18.3250000000	 1
     18.4636616087	  12.3000000000	  18.3250000000	 1
     22.7245065953	  12.3000000000	  18.3250000000	 1
     26.9853515819	  12.3000000000	  18.3250000000	 1
     12.0723941288	  13.5300000000	  18.3250000000	 1
     16.3332391154	  13.5300000000	  18.3250000000	 1
     20.5940841020	  13.5300000000	  18.3250000000	 1
     24.8549290886	  13.5300000000	  18.3250000000	 1
      9.9419716354	  14.7600000000	  18.3250000000	 1
     14.2028166221	  14.7600000000	  18.3250000000	 1
     18.4636616087	  14.7600000000	  18.3250000000	 1
     22.7245065953	  14.7600000000	  18.3250000000	 1
     26.9853515819	  14.7600000000	  18.3250000000	 1
      2.8405633244	   0.0000000000	  18.3250000000	 1
      7.1014083110	   0.0000000000	  18.3250000000	 1
     11.3622532977	   0.0000000000	  18.3250000000	 1
     15.6230982843	   0.0000000000	  18.3250000000	 1
     19.8839432709	   0.0000000000	  18.3250000000	 1
      4.9709858177	   1.2300000000	  18.3250000000	 1
      9.2318308043	   1.2300000000	  18.3250000000	 1
     13.4926757910	   1.2300000000	  18.3250000000	 1
     17.7535207776	   1.2300000000	  18.3250000000	 1
      2.8405633244	   2.4600000000	  18.3250000000	 1
      7.1014083110	   2.4600000000	  18.3250000000	 1
     11.3622532977	   2.4600000000	  18.3250000000	 1
     15.6230982843	   2.4600000000	  18.3250000000	 1
     19.8839432709	   2.4600000000	  18.3250000000	 1
      4.9709858177	   3.6900000000	  18.3250000000	 1
      9.2318308043	   3.6900000000	  18.3250000000	 1
     13.4926757910	   3.6900000000	  18.3250000000	 1
     17.7535207776	   3.6900000000	  18.3250000000	 1
     22.0143657642	   3.6900000000	  18.3250000000	 1
      7.1014083110	   4.9200000000	  18.3250000000	 1
     11.3622532977	   4.9200000000	  18.3250000000	 1
     15.6230982843	   4.9200000000	  18.3250000000	 1
     19.8839432709	   4.9200000000	  18.3250000000	 1
      4.9709858177	   6.1500000000	  18.3250000000	 1
      9.2318308043	   6.1500000000	  18.3250000000	 1
     13.4926757910	   6.1500000000	  18.3250000000	 1
     17.7535207776	   6.1500000000	  18.3250000000	 1
     22.0143657642	   6.1500000000	  18.3250000000	 1
      7.1014083110	   7.3800000000	  18.3250000000	 1
     11.3622532977	   7.3800000000	  18.3250000000	 1
     15.6230982843	   7.3800000000	  18.3250000000	 1
     19.8839432709	   7.3800000000	  18.3250000000	 1
     24.1447882575	   7.3800000000	  18.3250000000	 1
      9.2318308043	   8.6100000000	  18.3250000000	 1
     13.4926757910	   8.6100000000	  18.3250000000	 1
     17.7535207776	   8.6100000000	  18.3250000000	 1
     22.0143657642	   8.6100000000	  18.3250000000	 1
      7.1014083110	   9.8400000000	  18.3250000000	 1
     11.3622532977	   9.8400000000	  18.3250000000	 1
     15.6230982843	   9.8400000000	  18.3250000000	 1
     19.8839432709	   9.8400000000	  18.3250000000	 1
     24.1447882575	   9.8400000000	  18.3250000000	 1
      9.2318308043	  11.0700000000	  18.3250000000	 1
     13.4926757910	  11.0700000000	  18.3250000000	 1
     17.7535207776	  11.0700000000	  18.3250000000	 1
     22.0143657642	  11.0700000000	  18.3250000000	 1
     26.2752107508	  11.0700000000	  18.3250000000	 1
     11.3622532977	  12.3000000000	  18.3250000000	 1
     15.6230982843	  12.3000000000	  18.3250000000	 1
     19.8839432709	  12.3000000000	  18.3250000000	 1
     24.1447882575	  12.3000000000	  18.3250000000	 1
      9.2318308043	  13.5300000000	  18.3250000000	 1
     13.4926757910	  13.5300000000	  18.3250000000	 1
     17.7535207776	  13.5300000000	  18.3250000000	 1
     22.0143657642	  13.5300000000	  18.3250000000	 1
     26.2752107508	  13.5300000000	  18.3250000000	 1
     11.3622532977	  14.7600000000	  18.3250000000	 1
     15.6230982843	  14.7600000000	  18.3250000000	 1
     19.8839432709	  14.7600000000	  18.3250000000	 1
     24.1447882575	  14.7600000000	  18.3250000000	 1
     28.4056332441	  14.7600000000	  18.3250000000	 1
      3.6787623382	   0.7662295082	  21.6750000000	 1
      7.9046823659	   0.2218032787	  21.6750000000	 1
     12.1306023936	  -0.3226229508	  21.6750000000	 1
     16.3565224213	  -0.8670491803	  21.6750000000	 1
      1.7229646394	   2.2583606557	  21.6750000000	 1
      5.9488846671	   1.7139344262	  21.6750000000	 1
     10.1748046948	   1.1695081967	  21.6750000000	 1
     14.4007247225	   0.6250819672	  21.6750000000	 1
     18.6266447502	   0.0806557377	  21.6750000000	 1
      3.9930869683	   3.2060655738	  21.6750000000	 1
      8.2190069960	   2.6616393443	  21.6750000000	 1
     12.4449270238	   2.1172131148	  21.6750000000	 1
     16.6708470515	   1.5727868852	  21.6750000000	 1
      6.2632092973	   4.1537704918	  21.6750000000	 1
     10.4891293250	   3.6093442623	  21.6750000000	 1
     14.7150493527	   3.0649180328	  21.6750000000	 1
     18.9409693804	   2.5204918033	  21.6750000000	 1
      4.3074115985	   5.6459016393	  21.6750000000	 1
      8.5333316262	   5.1014754098	  21.6750000000	 1
     12.7592516539	   4.5570491803	  21.6750000000	 1
     16.9851716816	   4.0126229508	  21.6750000000	 1
     21.2110917093	   3.4681967213	  21.6750000000	 1
      6.5775339274	   6.5936065574	  21.6750000000	 1
     10.8034539551	   6.0491803279	  21.6750000000	 1
     15.0293739829	   5.5047540984	  21.6750000000	 1
     19.2552940106	   4.9603278689	  21.6750000000	 1
      8.8476562564	   7.5413114754	  21.6750000000	 1
     13.0735762841	   6.9968852459	  21.6750000000	 1
     17.2994963118	   6.4524590164	  21.6750000000	 1
     21.5254163395	   5.9080327869	  21.6750000000	 1
      6.8918585576	   9.0334426230	  21.6750000000	 1
     11.1177785853	   8.4890163934	  21.6750000000	 1
     15.3436986130	   7.9445901639	  21.6750000000	 1
     19.5696186407	   7.4001639344	  21.6750000000	 1
     23.7955386684	   6.8557377049	  21.6750000000	 1
      9.1619808865	   9.9811475410	  21.6750000000	 1
     13.3879009142	   9.4367213115	  21.6750000000	 1
     17.6138209420	   8.8922950820	  21.6750000000	 1
     21.8397409697	   8.3478688525	  21.6750000000	 1
     11.4321032155	  10.9288524590	  21.6750000000	 1
     15.6580232432	  10.3844262295	  21.6750000000	 1
     19.8839432709	   9.8400000000	  21.6750000000	 1
     24.1098632986	   9.2955737705	  21.6750000000	 1
      9.4763055167	  12.4209836066	  21.6750000000	 1
     13.7022255444	  11.8765573770	  21.6750000000	 1
     17.9281455721	  11.3321311475	  21.6750000000	 1
     22.1540655998	  10.7877049180	  21.6750000000	 1
     26.3799856275	  10.2432786885	  21.6750000000	 1
     11.7464278456	  13.3686885246	  21.6750000000	 1
     15.9723478733	  12.8242622951	  21.6750000000	 1
     20.1982679011	  12.2798360656	  21.6750000000	 1
     24.4241879288	  11.7354098361	  21.6750000000	 1
     14.0165501746	  14.3163934426	  21.6750000000	 1
     18.2424702023	  13.7719672131	  21.6750000000	 1
     22.4683902300	  13.2275409836	  21.6750000000	 1
     26.6943102577	  12.6831147541	  21.6750000000	 1
     12.0607524758	  15.8085245902	  21.6750000000	 1
     16.2866725035	  15.2640983607	  21.6750000000	 1
     20.5125925312	  14.7196721311	  21.6750000000	 1
     24.7385125589	  14.1752459016	  21.6750000000	 1
     28.9644325866	  13.6308196721	  21.6750000000	 1
      0.8614823197	   1.1291803279	  21.6750000000	 1
      5.0874023474	   0.5847540984	  21.6750000000	 1
      9.3133223751	   0.0403278689	  21.6750000000	 1
     13.5392424028	  -0.5040983607	  21.6750000000	 1
     17.7651624305	  -1.0485245902	  21.6750000000	 1
      3.1316046486	   2.0768852459	  21.6750000000	 1
      7.3575246763	   1.5324590164	  21.6750000000	 1
     11.5834447041	   0.9880327869	  21.6750000000	 1
     15.8093647318	   0.4436065574	  21.6750000000	 1
      5.4017269776	   3.0245901639	  21.6750000000	 1
      9.6276470053	   2.4801639344	  21.6750000000	 1
     13.8535670330	   1.9357377049	  21.6750000000	 1
     18.0794870607	   1.3913114754	  21.6750000000	 1
      3.4459292788	   4.5167213115	  21.6750000000	 1
      7.6718493065	   3.9722950820	  21.6750000000	 1
     11.8977693342	   3.4278688525	  21.6750000000	 1
     16.1236893619	   2.8834426230	  21.6750000000	 1
     20.3496093896	   2.3390163934	  21.6750000000	 1
      5.7160516077	   5.4644262295	  21.6750000000	 1
      9.9419716354	   4.9200000000	  21.6750000000	 1
     14.1678916632	   4.3755737705	  21.6750000000	 1
     18.3938116909	   3.8311475410	  21.6750000000	 1
      7.9861739367	   6.4121311475	  21.6750000000	 1
     12.2120939644	   5.8677049180	  21.6750000000	 1
     16.4380139921	   5.3232786885	  21.6750000000	 1
     20.6639340198	   4.7788524590	  21.6750000000	 1
      6.0303762379	   7.9042622951	  21.6750000000	 1
     10.2562962656	   7.3598360656	  21.6750000000	 1
     14.4822162933	   6.8154098361	  21.6750000000	 1
     18.7081363210	   6.2709836066	  21.6750000000	 1
     22.9340563487	   5.7265573770	  21.6750000000	 1
      8.3004985668	   8.8519672131	  21.6750000000	 1
     12.5264185945	   8.3075409836	  21.6750000000	 1
     16.7523386223	   7.7631147541	  21.6750000000	 1
     20.9782586500	   7.2186885246	  21.6750000000	 1
     10.5706208958	   9.7996721311	  21.6750000000	 1
     14.7965409235	   9.2552459016	  21.6750000000	 1
     19.0224609512	   8.7108196721	  21.6750000000	 1
     23.2483809789	   8.1663934426	  21.6750000000	 1
      8.6148231970	  11.2918032787	  21.6750000000	 1
     12.8407432247	  10.7473770492	  21.6750000000	 1
     17.0666632524	  10.2029508197	  21.6750000000	 1
     21.2925832801	   9.6585245902	  21.6750000000	 1
     25.5185033078	   9.1140983607	  21.6750000000	 1
     10.8849455259	  12.2395081967	  21.6750000000	 1
     15.1108655536	  11.6950819672	  21.6750000000	 1
     19.3367855814	  11.1506557377	  21.6750000000	 1
     23.5627056091	  10.6062295082	  21.6750000000	 1
     13.1550678549	  13.1872131148	  21.6750000000	 1
     17.3809878826	  12.6427868852	  21.6750000000	 1
     21.6069079103	  12.0983606557	  21.6750000000	 1
     25.8328279380	  11.5539344262	  21.6750000000	 1
     11.1992701561	  14.6793442623	  21.6750000000	 1
     15.4251901838	  14.1349180328	  21.6750000000	 1
     19.6511102115	  13.5904918033	  21.6750000000	 1
     23.8770302392	  13.0460655738	  21.6750000000	 1
     28.1029502669	  12.5016393443	  21.6750000000	 1
     13.4693924850	  15.6270491803	  21.6750000000	 1
     17.6953125127	  15.0826229508	  21.6750000000	 1
     21.9212325404	  14.5381967213	  21.6750000000	 1
     26.1471525682	  13.9937704918	  21.6750000000	 1
%endblock AtomicCoordinatesAndAtomicSpecies
