LatticeConstant 1.0 Ang
%block LatticeVectors
     31.9563373996  -1.2300000000   0.0000000000
     17.0433799465  27.0600000000   0.0000000000
      0.0000000000   0.0000000000  40.0000000000
%endblock LatticeVectors

NumberOfAtoms 676
NumberOfSpecies 1

%block ChemicalSpeciesLabel
1  6   C
%endblock ChemicalSpeciesLabel

AtomicCoordinatesFormat Ang

%block AtomicCoordinatesAndAtomicSpecies
1.4202816622 0.0000000000 18.2670745936 1
5.6811266488 0.0000000000 18.2805899456 1
9.9419716354 0.0000000000 18.2855909980 1
14.2028166221 0.0000000000 18.2779453426 1
18.4636616087 0.0000000000 18.2774115369 1
22.7245065953 0.0000000000 18.2401577622 1
26.9853515819 0.0000000000 18.2835058746 1
31.2461965685 0.0000000000 18.2741609787 1
3.5507041555 1.2300000000 18.2068100163 1
7.8115491421 1.2300000000 18.2844022152 1
12.0723941288 1.2300000000 18.3027846058 1
16.3332391154 1.2300000000 18.2583271292 1
20.5940841020 1.2300000000 18.2881928799 1
24.8549290886 1.2300000000 18.3166783296 1
29.1157740752 1.2300000000 18.2721624596 1
33.3766190619 1.2300000000 18.2594184496 1
5.6811266488 2.4600000000 18.2895325102 1
9.9419716354 2.4600000000 18.2890285190 1
14.2028166221 2.4600000000 18.2801131749 1
18.4636616087 2.4600000000 18.3092886218 1
22.7245065953 2.4600000000 18.2519688550 1
26.9853515819 2.4600000000 18.3044062646 1
31.2461965685 2.4600000000 18.2958773468 1
3.5507041555 3.6900000000 18.2984105179 1
7.8115491421 3.6900000000 18.3254006870 1
12.0723941288 3.6900000000 18.2982007978 1
16.3332391154 3.6900000000 18.2896059440 1
20.5940841020 3.6900000000 18.2596877174 1
24.8549290886 3.6900000000 18.2883544354 1
29.1157740752 3.6900000000 18.2636164147 1
33.3766190619 3.6900000000 18.3173673357 1
5.6811266488 4.9200000000 18.3016414253 1
9.9419716354 4.9200000000 18.2594854138 1
14.2028166221 4.9200000000 18.2942262739 1
18.4636616087 4.9200000000 18.2671504246 1
22.7245065953 4.9200000000 18.2790685475 1
26.9853515819 4.9200000000 18.3006316374 1
31.2461965685 4.9200000000 18.2354175837 1
35.5070415552 4.9200000000 18.2946989954 1
7.8115491421 6.1500000000 18.2794927767 1
12.0723941288 6.1500000000 18.3136351922 1
16.3332391154 6.1500000000 18.2511523151 1
20.5940841020 6.1500000000 18.2538814694 1
24.8549290886 6.1500000000 18.2856290422 1
29.1157740752 6.1500000000 18.3082400166 1
33.3766190619 6.1500000000 18.2971083105 1
5.6811266488 7.3800000000 18.3009952306 1
9.9419716354 7.3800000000 18.2533762611 1
14.2028166221 7.3800000000 18.2697507386 1
18.4636616087 7.3800000000 18.2695504352 1
22.7245065953 7.3800000000 18.3020212925 1
26.9853515819 7.3800000000 18.3039477262 1
31.2461965685 7.3800000000 18.2976699919 1
35.5070415552 7.3800000000 18.3064231408 1
7.8115491421 8.6100000000 18.3053681603 1
12.0723941288 8.6100000000 18.3170752555 1
16.3332391154 8.6100000000 18.2894625596 1
20.5940841020 8.6100000000 18.2974928131 1
24.8549290886 8.6100000000 18.3084158788 1
29.1157740752 8.6100000000 18.2358037925 1
33.3766190619 8.6100000000 18.3098636696 1
37.6374640485 8.6100000000 18.3037909631 1
9.9419716354 9.8400000000 18.3000862670 1
14.2028166221 9.8400000000 18.2564504933 1
18.4636616087 9.8400000000 18.2697968760 1
22.7245065953 9.8400000000 18.2910650858 1
26.9853515819 9.8400000000 18.2846419783 1
31.2461965685 9.8400000000 18.3117874282 1
35.5070415552 9.8400000000 18.2874204603 1
7.8115491421 11.0700000000 18.2631923245 1
12.0723941288 11.0700000000 18.2788986508 1
16.3332391154 11.0700000000 18.2869359666 1
20.5940841020 11.0700000000 18.2921298690 1
24.8549290886 11.0700000000 18.2522662512 1
29.1157740752 11.0700000000 18.2811390464 1
33.3766190619 11.0700000000 18.2327285553 1
37.6374640485 11.0700000000 18.2985680963 1
9.9419716354 12.3000000000 18.2868801562 1
14.2028166221 12.3000000000 18.2770943410 1
18.4636616087 12.3000000000 18.2700561625 1
22.7245065953 12.3000000000 18.2484931491 1
26.9853515819 12.3000000000 18.2934301200 1
31.2461965685 12.3000000000 18.2931344577 1
35.5070415552 12.3000000000 18.2666289307 1
39.7678865418 12.3000000000 18.2907229249 1
12.0723941288 13.5300000000 18.2727469629 1
16.3332391154 13.5300000000 18.2977322186 1
20.5940841020 13.5300000000 18.3121778230 1
24.8549290886 13.5300000000 18.2241048849 1
29.1157740752 13.5300000000 18.2639895383 1
33.3766190619 13.5300000000 18.2896034011 1
37.6374640485 13.5300000000 18.2745513979 1
9.9419716354 14.7600000000 18.2938159595 1
14.2028166221 14.7600000000 18.2735171266 1
18.4636616087 14.7600000000 18.2829015959 1
22.7245065953 14.7600000000 18.2935655373 1
26.9853515819 14.7600000000 18.2867925118 1
31.2461965685 14.7600000000 18.2761022458 1
35.5070415552 14.7600000000 18.2965387663 1
39.7678865418 14.7600000000 18.2801534463 1
12.0723941288 15.9900000000 18.2795424174 1
16.3332391154 15.9900000000 18.2721722450 1
20.5940841020 15.9900000000 18.2527463801 1
24.8549290886 15.9900000000 18.2865957443 1
29.1157740752 15.9900000000 18.2939147931 1
33.3766190619 15.9900000000 18.2969576953 1
37.6374640485 15.9900000000 18.2586720608 1
41.8983090351 15.9900000000 18.2852148268 1
14.2028166221 17.2200000000 18.2997200322 1
18.4636616087 17.2200000000 18.2665935561 1
22.7245065953 17.2200000000 18.3016243093 1
26.9853515819 17.2200000000 18.3015069215 1
31.2461965685 17.2200000000 18.2968926548 1
35.5070415552 17.2200000000 18.3123406442 1
39.7678865418 17.2200000000 18.2775358938 1
12.0723941288 18.4500000000 18.2253095437 1
16.3332391154 18.4500000000 18.2987412366 1
20.5940841020 18.4500000000 18.2686496932 1
24.8549290886 18.4500000000 18.3022606225 1
29.1157740752 18.4500000000 18.2640850486 1
33.3766190619 18.4500000000 18.3098637696 1
37.6374640485 18.4500000000 18.3191827612 1
41.8983090351 18.4500000000 18.3089595611 1
14.2028166221 19.6800000000 18.3041865091 1
18.4636616087 19.6800000000 18.2783734544 1
22.7245065953 19.6800000000 18.2400051018 1
26.9853515819 19.6800000000 18.2740421834 1
31.2461965685 19.6800000000 18.3017598915 1
35.5070415552 19.6800000000 18.3000611319 1
39.7678865418 19.6800000000 18.2968671820 1
44.0287315284 19.6800000000 18.2957778944 1
16.3332391154 20.9100000000 18.3017057060 1
20.5940841020 20.9100000000 18.2961409954 1
24.8549290886 20.9100000000 18.2773674563 1
29.1157740752 20.9100000000 18.2788056618 1
33.3766190619 20.9100000000 18.2853180947 1
37.6374640485 20.9100000000 18.2669319123 1
41.8983090351 20.9100000000 18.2688941039 1
14.2028166221 22.1400000000 18.3042201929 1
18.4636616087 22.1400000000 18.3053174805 1
22.7245065953 22.1400000000 18.2985011030 1
26.9853515819 22.1400000000 18.2923516329 1
31.2461965685 22.1400000000 18.2765971896 1
35.5070415552 22.1400000000 18.2924420487 1
39.7678865418 22.1400000000 18.2372351580 1
44.0287315284 22.1400000000 18.2902673626 1
16.3332391154 23.3700000000 18.2431840909 1
20.5940841020 23.3700000000 18.2728440806 1
24.8549290886 23.3700000000 18.2999784969 1
29.1157740752 23.3700000000 18.3049792610 1
33.3766190619 23.3700000000 18.2985749944 1
37.6374640485 23.3700000000 18.2626248646 1
41.8983090351 23.3700000000 18.2528535710 1
46.1591540217 23.3700000000 18.2725774597 1
18.4636616087 24.6000000000 18.2880561647 1
22.7245065953 24.6000000000 18.2921764473 1
26.9853515819 24.6000000000 18.3015618924 1
31.2461965685 24.6000000000 18.2823531696 1
35.5070415552 24.6000000000 18.2715122624 1
39.7678865418 24.6000000000 18.3100859986 1
44.0287315284 24.6000000000 18.2818880966 1
16.3332391154 25.8300000000 18.2943431829 1
20.5940841020 25.8300000000 18.3021712547 1
24.8549290886 25.8300000000 18.3000565725 1
29.1157740752 25.8300000000 18.2517150871 1
33.3766190619 25.8300000000 18.2783052046 1
37.6374640485 25.8300000000 18.2941210430 1
41.8983090351 25.8300000000 18.2579501823 1
46.1591540217 25.8300000000 18.3073075255 1
2.8405633244 0.0000000000 18.2853252526 1
7.1014083110 0.0000000000 18.2824965780 1
11.3622532977 0.0000000000 18.2725404323 1
15.6230982843 0.0000000000 18.2761209748 1
19.8839432709 0.0000000000 18.3036699254 1
24.1447882575 0.0000000000 18.2587002941 1
28.4056332441 0.0000000000 18.3026018842 1
32.6664782307 0.0000000000 18.2968200404 1
4.9709858177 1.2300000000 18.3028545146 1
9.2318308043 1.2300000000 18.2950015593 1
13.4926757910 1.2300000000 18.3028551744 1
17.7535207776 1.2300000000 18.3133716495 1
22.0143657642 1.2300000000 18.2921795816 1
26.2752107508 1.2300000000 18.2972204606 1
30.5360557374 1.2300000000 18.2452500569 1
2.8405633244 2.4600000000 18.3123742427 1
7.1014083110 2.4600000000 18.2625932010 1
11.3622532977 2.4600000000 18.3089301389 1
15.6230982843 2.4600000000 18.3079275354 1
19.8839432709 2.4600000000 18.2860520232 1
24.1447882575 2.4600000000 18.2892431875 1
28.4056332441 2.4600000000 18.3014224667 1
32.6664782307 2.4600000000 18.2988316344 1
4.9709858177 3.6900000000 18.3094936260 1
9.2318308043 3.6900000000 18.3013958306 1
13.4926757910 3.6900000000 18.2853942930 1
17.7535207776 3.6900000000 18.2855891060 1
22.0143657642 3.6900000000 18.3069174257 1
26.2752107508 3.6900000000 18.2939912267 1
30.5360557374 3.6900000000 18.2576538401 1
34.7969007241 3.6900000000 18.2879195399 1
7.1014083110 4.9200000000 18.3112145525 1
11.3622532977 4.9200000000 18.2957579720 1
15.6230982843 4.9200000000 18.2714018194 1
19.8839432709 4.9200000000 18.2720002573 1
24.1447882575 4.9200000000 18.2740755840 1
28.4056332441 4.9200000000 18.2700688471 1
32.6664782307 4.9200000000 18.2568280213 1
4.9709858177 6.1500000000 18.2719552248 1
9.2318308043 6.1500000000 18.2917503282 1
13.4926757910 6.1500000000 18.3050235336 1
17.7535207776 6.1500000000 18.3026610777 1
22.0143657642 6.1500000000 18.2878982182 1
26.2752107508 6.1500000000 18.2905164506 1
30.5360557374 6.1500000000 18.2880060030 1
34.7969007241 6.1500000000 18.2556086563 1
7.1014083110 7.3800000000 18.2840486538 1
11.3622532977 7.3800000000 18.2812668408 1
15.6230982843 7.3800000000 18.2867210873 1
19.8839432709 7.3800000000 18.3035651564 1
24.1447882575 7.3800000000 18.2534342306 1
28.4056332441 7.3800000000 18.3164783253 1
32.6664782307 7.3800000000 18.2214821037 1
36.9273232174 7.3800000000 18.2961813255 1
9.2318308043 8.6100000000 18.3133000333 1
13.4926757910 8.6100000000 18.2850139330 1
17.7535207776 8.6100000000 18.2633159996 1
22.0143657642 8.6100000000 18.2800172263 1
26.2752107508 8.6100000000 18.2922107291 1
30.5360557374 8.6100000000 18.3221440412 1
34.7969007241 8.6100000000 18.2725953640 1
7.1014083110 9.8400000000 18.3055696585 1
11.3622532977 9.8400000000 18.2725863805 1
15.6230982843 9.8400000000 18.2919497531 1
19.8839432709 9.8400000000 18.2746308875 1
24.1447882575 9.8400000000 18.2779611456 1
28.4056332441 9.8400000000 18.3098782261 1
32.6664782307 9.8400000000 18.2842017672 1
36.9273232174 9.8400000000 18.3136741900 1
9.2318308043 11.0700000000 18.3019217235 1
13.4926757910 11.0700000000 18.2874421161 1
17.7535207776 11.0700000000 18.3131404005 1
22.0143657642 11.0700000000 18.2852687093 1
26.2752107508 11.0700000000 18.2917991841 1
30.5360557374 11.0700000000 18.3111117074 1
34.7969007241 11.0700000000 18.2430025104 1
39.0577457107 11.0700000000 18.2895980673 1
11.3622532977 12.3000000000 18.3024649863 1
15.6230982843 12.3000000000 18.2986929120 1
19.8839432709 12.3000000000 18.3143087717 1
24.1447882575 12.3000000000 18.2839209860 1
28.4056332441 12.3000000000 18.2824911105 1
32.6664782307 12.3000000000 18.2998325004 1
36.9273232174 12.3000000000 18.2849290428 1
9.2318308043 13.5300000000 18.2966803520 1
13.4926757910 13.5300000000 18.3057932734 1
17.7535207776 13.5300000000 18.2944050958 1
22.0143657642 13.5300000000 18.2891533264 1
26.2752107508 13.5300000000 18.2849225189 1
30.5360557374 13.5300000000 18.2825750879 1
34.7969007241 13.5300000000 18.2989452522 1
39.0577457107 13.5300000000 18.2727235346 1
11.3622532977 14.7600000000 18.3155676250 1
15.6230982843 14.7600000000 18.2542824786 1
19.8839432709 14.7600000000 18.3063216220 1
24.1447882575 14.7600000000 18.3047180787 1
28.4056332441 14.7600000000 18.2879946640 1
32.6664782307 14.7600000000 18.3070151186 1
36.9273232174 14.7600000000 18.3133622901 1
41.1881682040 14.7600000000 18.2959001798 1
13.4926757910 15.9900000000 18.2835493712 1
17.7535207776 15.9900000000 18.2846721673 1
22.0143657642 15.9900000000 18.2851764243 1
26.2752107508 15.9900000000 18.3047484674 1
30.5360557374 15.9900000000 18.3058070088 1
34.7969007241 15.9900000000 18.2790756549 1
39.0577457107 15.9900000000 18.2841712162 1
11.3622532977 17.2200000000 18.2704572836 1
15.6230982843 17.2200000000 18.2791590913 1
19.8839432709 17.2200000000 18.2928208012 1
24.1447882575 17.2200000000 18.3076314707 1
28.4056332441 17.2200000000 18.2498189276 1
32.6664782307 17.2200000000 18.3023683193 1
36.9273232174 17.2200000000 18.2833317831 1
41.1881682040 17.2200000000 18.2820992636 1
13.4926757910 18.4500000000 18.2901856426 1
17.7535207776 18.4500000000 18.2738835161 1
22.0143657642 18.4500000000 18.2997052279 1
26.2752107508 18.4500000000 18.2722011391 1
30.5360557374 18.4500000000 18.2811984957 1
34.7969007241 18.4500000000 18.2781044627 1
39.0577457107 18.4500000000 18.3217385180 1
43.3185906973 18.4500000000 18.3170289683 1
15.6230982843 19.6800000000 18.2737571940 1
19.8839432709 19.6800000000 18.2988654761 1
24.1447882575 19.6800000000 18.2631094482 1
28.4056332441 19.6800000000 18.2396308181 1
32.6664782307 19.6800000000 18.2996386419 1
36.9273232174 19.6800000000 18.2797194981 1
41.1881682040 19.6800000000 18.2804018114 1
13.4926757910 20.9100000000 18.2951759706 1
17.7535207776 20.9100000000 18.2693898546 1
22.0143657642 20.9100000000 18.2965540799 1
26.2752107508 20.9100000000 18.2531013428 1
30.5360557374 20.9100000000 18.3141789778 1
34.7969007241 20.9100000000 18.2508601467 1
39.0577457107 20.9100000000 18.2370329204 1
43.3185906973 20.9100000000 18.2821673920 1
15.6230982843 22.1400000000 18.2701979413 1
19.8839432709 22.1400000000 18.2953239430 1
24.1447882575 22.1400000000 18.3014221591 1
28.4056332441 22.1400000000 18.2437817757 1
32.6664782307 22.1400000000 18.2761567949 1
36.9273232174 22.1400000000 18.2971208515 1
41.1881682040 22.1400000000 18.2858023810 1
45.4490131906 22.1400000000 18.2569326139 1
17.7535207776 23.3700000000 18.2806019320 1
22.0143657642 23.3700000000 18.2597149214 1
26.2752107508 23.3700000000 18.2580224631 1
30.5360557374 23.3700000000 18.3200213715 1
34.7969007241 23.3700000000 18.3027580869 1
39.0577457107 23.3700000000 18.3084461701 1
43.3185906973 23.3700000000 18.2692600885 1
15.6230982843 24.6000000000 18.3120037935 1
19.8839432709 24.6000000000 18.2753060246 1
24.1447882575 24.6000000000 18.3058985034 1
28.4056332441 24.6000000000 18.2949842421 1
32.6664782307 24.6000000000 18.3181866166 1
36.9273232174 24.6000000000 18.2781874862 1
41.1881682040 24.6000000000 18.2916996362 1
45.4490131906 24.6000000000 18.3212552875 1
17.7535207776 25.8300000000 18.3050118560 1
22.0143657642 25.8300000000 18.2804834021 1
26.2752107508 25.8300000000 18.2814865214 1
30.5360557374 25.8300000000 18.3146625875 1
34.7969007241 25.8300000000 18.3076923263 1
39.0577457107 25.8300000000 18.2694224288 1
43.3185906973 25.8300000000 18.3127830025 1
47.5794356839 25.8300000000 18.2893507684 1
3.6347444906 0.9534319527 21.7177005457 1
7.8829834269 0.6259171598 21.6830483607 1
12.1312223633 0.2984023669 21.7319213332 1
16.3794612996 -0.0291124260 21.7454743747 1
20.6277002360 -0.3566272189 21.7098632848 1
24.8759391724 -0.6841420118 21.7213135857 1
29.1241781087 -1.0116568047 21.7248931834 1
1.6051703993 2.3435502959 21.6802126822 1
5.8534093357 2.0160355030 21.6991883718 1
10.1016482720 1.6885207101 21.7080515391 1
14.3498872084 1.3610059172 21.6954253731 1
18.5981261448 1.0334911243 21.7041015815 1
22.8463650811 0.7059763314 21.7340282716 1
27.0946040175 0.3784615385 21.7466137305 1
31.3428429538 0.0509467456 21.7190613523 1
3.8238352444 3.4061538462 21.6990631254 1
8.0720741808 3.0786390533 21.7251737301 1
12.3203131171 2.7511242604 21.6826755271 1
16.5685520535 2.4236094675 21.6953290967 1
20.8167909899 2.0960946746 21.7140634765 1
25.0650299262 1.7685798817 21.7002774474 1
29.3132688626 1.4410650888 21.7267409809 1
6.0425000895 4.4687573964 21.7096205134 1
10.2907390259 4.1412426036 21.7056753367 1
14.5389779622 3.8137278107 21.7131839936 1
18.7872168986 3.4862130178 21.7041449501 1
23.0354558350 3.1586982249 21.7371958393 1
27.2836947713 2.8311834320 21.7112209201 1
31.5319337077 2.5036686391 21.7128080627 1
4.0129259982 5.8588757396 21.7200589136 1
8.2611649346 5.5313609467 21.7683631555 1
12.5094038710 5.2038461538 21.7150946023 1
16.7576428073 4.8763313609 21.7269686204 1
21.0058817437 4.5488165680 21.7381124282 1
25.2541206801 4.2213017751 21.7135974322 1
29.5023596164 3.8937869822 21.7148170677 1
33.7505985528 3.5662721893 21.6849722711 1
6.2315908433 6.9214792899 21.6901601382 1
10.4798297797 6.5939644970 21.7466192919 1
14.7280687161 6.2664497041 21.7246040996 1
18.9763076524 5.9389349112 21.7045494731 1
23.2245465888 5.6114201183 21.7092531998 1
27.4727855252 5.2839053254 21.7076056952 1
31.7210244615 4.9563905325 21.7139915201 1
8.4502556885 7.9840828402 21.6828434558 1
12.6984946248 7.6565680473 21.6897659688 1
16.9467335612 7.3290532544 21.7181661480 1
21.1949724975 7.0015384615 21.7093613305 1
25.4432114339 6.6740236686 21.7386836571 1
29.6914503703 6.3465088757 21.7448659974 1
33.9396893066 6.0189940828 21.7003425347 1
6.4206815972 9.3742011834 21.6941158525 1
10.6689205336 9.0466863905 21.6844791832 1
14.9171594699 8.7191715976 21.7264907541 1
19.1653984063 8.3916568047 21.6779729559 1
23.4136373426 8.0641420118 21.6932742289 1
27.6618762790 7.7366272189 21.7759633704 1
31.9101152154 7.4091124260 21.7208746900 1
36.1583541517 7.0815976331 21.7031182422 1
8.6393464423 10.4368047337 21.6980900563 1
12.8875853787 10.1092899408 21.7250838740 1
17.1358243150 9.7817751479 21.7291358141 1
21.3840632514 9.4542603550 21.7197912476 1
25.6323021878 9.1267455621 21.7083285284 1
29.8805411241 8.7992307692 21.7031840312 1
34.1287800605 8.4717159763 21.7254988334 1
10.8580112874 11.4994082840 21.7177365896 1
15.1062502238 11.1718934911 21.7363506281 1
19.3544891601 10.8443786982 21.7260755676 1
23.6027280965 10.5168639053 21.7291202202 1
27.8509670329 10.1893491124 21.6885633786 1
32.0992059692 9.8618343195 21.7163926376 1
36.3474449056 9.5343195266 21.7043234658 1
8.8284371961 12.8895266272 21.7001630772 1
13.0766761325 12.5620118343 21.7301895825 1
17.3249150689 12.2344970414 21.7048859164 1
21.5731540052 11.9069822485 21.6904743392 1
25.8213929416 11.5794674556 21.7176184516 1
30.0696318780 11.2519526627 21.7099275384 1
34.3178708143 10.9244378698 21.6945035859 1
38.5661097507 10.5969230769 21.7004732997 1
11.0471020412 13.9521301775 21.7520119705 1
15.2953409776 13.6246153846 21.7242281818 1
19.5435799140 13.2971005917 21.7308571949 1
23.7918188503 12.9695857988 21.6834897004 1
28.0400577867 12.6420710059 21.6921253459 1
32.2882967231 12.3145562130 21.7447963276 1
36.5365356594 11.9870414201 21.6880859826 1
13.2657668863 15.0147337278 21.6968030546 1
17.5140058227 14.6872189349 21.7009600863 1
21.7622447591 14.3597041420 21.7175154910 1
26.0104836954 14.0321893491 21.7130918193 1
30.2587226318 13.7046745562 21.7393892075 1
34.5069615682 13.3771597633 21.7173064909 1
38.7552005045 13.0496449704 21.7470166574 1
11.2361927951 16.4048520710 21.7215293814 1
15.4844317315 16.0773372781 21.7245041772 1
19.7326706678 15.7498224852 21.7138437538 1
23.9809096042 15.4223076923 21.7179683143 1
28.2291485405 15.0947928994 21.7533079316 1
32.4773874769 14.7672781065 21.7072965942 1
36.7256264133 14.4397633136 21.7452959293 1
40.9738653496 14.1122485207 21.6923102292 1
13.4548576402 17.4674556213 21.7282436319 1
17.7030965766 17.1399408284 21.7214449797 1
21.9513355129 16.8124260355 21.7075400803 1
26.1995744493 16.4849112426 21.6956103698 1
30.4478133856 16.1573964497 21.6982887441 1
34.6960523220 15.8298816568 21.7144028534 1
38.9442912584 15.5023668639 21.6934201182 1
15.6735224853 18.5300591716 21.7132821017 1
19.9217614217 18.2025443787 21.7506685584 1
24.1700003580 17.8750295858 21.7353596678 1
28.4182392944 17.5475147929 21.7327780693 1
32.6664782307 17.2200000000 21.7125954234 1
36.9147171671 16.8924852071 21.6873149808 1
41.1629561035 16.5649704142 21.7096969194 1
13.6439483940 19.9201775148 21.7109036942 1
17.8921873304 19.5926627219 21.7248314098 1
22.1404262668 19.2651479290 21.6818686307 1
26.3886652031 18.9376331361 21.7144198294 1
30.6369041395 18.6101183432 21.7274132710 1
34.8851430759 18.2826035503 21.7259866328 1
39.1333820122 17.9550887574 21.7323181971 1
43.3816209486 17.6275739645 21.6853031467 1
15.8626132391 20.9827810651 21.7075114911 1
20.1108521755 20.6552662722 21.7404992501 1
24.3590911119 20.3277514793 21.7094610728 1
28.6073300482 20.0002366864 21.7408400989 1
32.8555689846 19.6727218935 21.6964509623 1
37.1038079210 19.3452071006 21.7267257317 1
41.3520468573 19.0176923077 21.7299034479 1
18.0812780842 22.0453846154 21.6933458312 1
22.3295170206 21.7178698225 21.7029686271 1
26.5777559570 21.3903550296 21.7199727151 1
30.8259948933 21.0628402367 21.6787151384 1
35.0742338297 20.7353254438 21.7087563352 1
39.3224727661 20.4078106509 21.7364713960 1
43.5707117024 20.0802958580 21.7212643441 1
16.0517039930 23.4355029586 21.7219988691 1
20.2999429293 23.1079881657 21.7264599822 1
24.5481818657 22.7804733728 21.7093010487 1
28.7964208021 22.4529585799 21.6902592765 1
33.0446597384 22.1254437870 21.7179645165 1
37.2928986748 21.7979289941 21.7173446752 1
41.5411376112 21.4704142012 21.6796932912 1
45.7893765475 21.1428994083 21.7336504225 1
18.2703688381 24.4981065089 21.6827996605 1
22.5186077745 24.1705917160 21.6849693608 1
26.7668467108 23.8430769231 21.7330470929 1
31.0150856472 23.5155621302 21.7376394583 1
35.2633245835 23.1880473373 21.7278263517 1
39.5115635199 22.8605325444 21.7078902260 1
43.7598024563 22.5330177515 21.7444369018 1
20.4890336832 25.5607100592 21.7005512646 1
24.7372726196 25.2331952663 21.7218977332 1
28.9855115559 24.9056804734 21.7163135290 1
33.2337504923 24.5781656805 21.7227177577 1
37.4819894286 24.2506508876 21.6983016185 1
41.7302283650 23.9231360947 21.6937796326 1
45.9784673014 23.5956213018 21.7133750622 1
18.4594595919 26.9508284024 21.7363199901 1
22.7076985283 26.6233136095 21.7406485298 1
26.9559374647 26.2957988166 21.7020083096 1
31.2041764010 25.9682840237 21.7027059103 1
35.4524153374 25.6407692308 21.7260316772 1
39.7006542737 25.3132544379 21.7187137829 1
43.9488932101 24.9857396450 21.7122314220 1
48.1971321465 24.6582248521 21.7284693741 1
0.8025851996 1.1717751479 21.7237539303 1
5.0508241360 0.8442603550 21.6993350605 1
9.2990630724 0.5167455621 21.7412376052 1
13.5473020087 0.1892307692 21.6873025574 1
17.7955409451 -0.1382840237 21.7280003031 1
22.0437798815 -0.4657988166 21.6942991265 1
26.2920188178 -0.7933136095 21.6918182580 1
30.5402577542 -1.1208284024 21.7216804808 1
3.0212500448 2.2343786982 21.6954542224 1
7.2694889811 1.9068639053 21.7252868086 1
11.5177279175 1.5793491124 21.7231717679 1
15.7659668538 1.2518343195 21.6959347849 1
20.0142057902 0.9243195266 21.7160956329 1
24.2624447266 0.5968047337 21.7311222254 1
28.5106836629 0.2692899408 21.6900761114 1
5.2399148899 3.2969822485 21.7077823111 1
9.4881538262 2.9694674556 21.7033790102 1
13.7363927626 2.6419526627 21.7145667331 1
17.9846316989 2.3144378698 21.6977007466 1
22.2328706353 1.9869230769 21.7423730893 1
26.4811095717 1.6594082840 21.7229190788 1
30.7293485080 1.3318934911 21.7513978517 1
3.2103407986 4.6871005917 21.7155686458 1
7.4585797350 4.3595857988 21.7332900561 1
11.7068186713 4.0320710059 21.7120175708 1
15.9550576077 3.7045562130 21.6843620331 1
20.2032965440 3.3770414201 21.7012807373 1
24.4515354804 3.0495266272 21.7194666430 1
28.6997744168 2.7220118343 21.7382552555 1
32.9480133531 2.3944970414 21.7180481469 1
5.4290056437 5.7497041420 21.7221130052 1
9.6772445801 5.4221893491 21.7403665463 1
13.9254835164 5.0946745562 21.6971138818 1
18.1737224528 4.7671597633 21.7114962535 1
22.4219613892 4.4396449704 21.6815869241 1
26.6702003255 4.1121301775 21.7035964603 1
30.9184392619 3.7846153846 21.7123115661 1
7.6476704888 6.8123076923 21.7184080221 1
11.8959094252 6.4847928994 21.7169314138 1
16.1441483615 6.1572781065 21.6957626991 1
20.3923872979 5.8297633136 21.7220264673 1
24.6406262343 5.5022485207 21.7085778994 1
28.8888651706 5.1747337278 21.7199403990 1
33.1371041070 4.8472189349 21.7551543941 1
5.6180963975 8.2024260355 21.7407807387 1
9.8663353339 7.8749112426 21.7061085531 1
14.1145742703 7.5473964497 21.7354508129 1
18.3628132066 7.2198816568 21.7216562940 1
22.6110521430 6.8923668639 21.7046515650 1
26.8592910794 6.5648520710 21.6815252758 1
31.1075300157 6.2373372781 21.7026344856 1
35.3557689521 5.9098224852 21.7110570858 1
7.8367612426 9.2650295858 21.7001751997 1
12.0850001790 8.9375147929 21.6889060953 1
16.3332391154 8.6100000000 21.7203489058 1
20.5814780517 8.2824852071 21.7409880010 1
24.8297169881 7.9549704142 21.7129337554 1
29.0779559245 7.6274556213 21.6844027291 1
33.3261948608 7.2999408284 21.7341293048 1
10.0554260878 10.3276331361 21.7007638871 1
14.3036650241 10.0001183432 21.6929782245 1
18.5519039605 9.6726035503 21.7150341934 1
22.8001428968 9.3450887574 21.7329979111 1
27.0483818332 9.0175739645 21.7167717822 1
31.2966207696 8.6900591716 21.7382646116 1
35.5448597059 8.3625443787 21.7112179780 1
8.0258519965 11.7177514793 21.7030085378 1
12.2740909329 11.3902366864 21.7245333656 1
16.5223298692 11.0627218935 21.7134553366 1
20.7705688056 10.7352071006 21.6980798840 1
25.0188077419 10.4076923077 21.7253731870 1
29.2670466783 10.0801775148 21.6916995018 1
33.5152856147 9.7526627219 21.7174249368 1
37.7635245510 9.4251479290 21.7300034281 1
10.2445168416 12.7803550296 21.7578317374 1
14.4927557780 12.4528402367 21.7150182179 1
18.7409947143 12.1253254438 21.7114939071 1
22.9892336507 11.7978106509 21.6784048877 1
27.2374725870 11.4702958580 21.7052425453 1
31.4857115234 11.1427810651 21.7406277546 1
35.7339504598 10.8152662722 21.7154813336 1
12.4631816867 13.8429585799 21.7202287122 1
16.7114206231 13.5154437870 21.7276431424 1
20.9596595594 13.1879289941 21.7420313208 1
25.2078984958 12.8604142012 21.6888721762 1
29.4561374322 12.5328994083 21.7429336521 1
33.7043763685 12.2053846154 21.6960760023 1
37.9526153049 11.8778698225 21.7163174823 1
10.4336075954 15.2330769231 21.7104285744 1
14.6818465318 14.9055621302 21.7192540347 1
18.9300854682 14.5780473373 21.7200034040 1
23.1783244045 14.2505325444 21.7024423806 1
27.4265633409 13.9230177515 21.7207397534 1
31.6748022773 13.5955029586 21.7072606617 1
35.9230412136 13.2679881657 21.7392325551 1
40.1712801500 12.9404733728 21.7168122431 1
12.6522724405 16.2956804734 21.7075621296 1
16.9005113769 15.9681656805 21.7015728705 1
21.1487503133 15.6406508876 21.7123178753 1
25.3969892496 15.3131360947 21.7107775836 1
29.6452281860 14.9856213018 21.6984558948 1
33.8934671224 14.6581065089 21.7391443215 1
38.1417060587 14.3305917160 21.6840148493 1
14.8709372856 17.3582840237 21.7082061462 1
19.1191762220 17.0307692308 21.7058416487 1
23.3674151584 16.7032544379 21.7248376729 1
27.6156540947 16.3757396450 21.7159507951 1
31.8638930311 16.0482248521 21.7208698606 1
36.1121319675 15.7207100592 21.7008441207 1
40.3603709038 15.3931952663 21.6897728796 1
12.8413631944 18.7484023669 21.7365679969 1
17.0896021308 18.4208875740 21.7178613020 1
21.3378410671 18.0933727811 21.7179877630 1
25.5860800035 17.7658579882 21.7340121027 1
29.8343189398 17.4383431953 21.7179302656 1
34.0825578762 17.1108284024 21.7345252930 1
38.3307968126 16.7833136095 21.7157288679 1
42.5790357489 16.4557988166 21.6874174237 1
15.0600280395 19.8110059172 21.7072053827 1
19.3082669759 19.4834911243 21.7010568840 1
23.5565059122 19.1559763314 21.7115658138 1
27.8047448486 18.8284615385 21.7229807570 1
32.0529837849 18.5009467456 21.7530224189 1
36.3012227213 18.1734319527 21.7236731883 1
40.5494616577 17.8459171598 21.7223459812 1
17.2786928846 20.8736094675 21.7205298598 1
21.5269318210 20.5460946746 21.6795136928 1
25.7751707573 20.2185798817 21.7400722445 1
30.0234096937 19.8910650888 21.7039970593 1
34.2716486300 19.5635502959 21.7077976410 1
38.5198875664 19.2360355030 21.7208599357 1
42.7681265028 18.9085207101 21.6999412680 1
15.2491187933 22.2637278107 21.7518451035 1
19.4973577297 21.9362130178 21.6883814003 1
23.7455966661 21.6086982249 21.7362511025 1
27.9938356024 21.2811834320 21.6985326883 1
32.2420745388 20.9536686391 21.7045370826 1
36.4903134752 20.6261538462 21.7095191253 1
40.7385524115 20.2986390533 21.7050466398 1
44.9867913479 19.9711242604 21.7030489470 1
17.4677836384 23.3263313609 21.7403249050 1
21.7160225748 22.9988165680 21.7067545406 1
25.9642615112 22.6713017751 21.7325389397 1
30.2125004475 22.3437869822 21.6783923096 1
34.4607393839 22.0162721893 21.7461651431 1
38.7089783203 21.6887573964 21.6903013252 1
42.9572172566 21.3612426036 21.6960548016 1
19.6864484835 24.3889349112 21.7140402865 1
23.9346874199 24.0614201183 21.7177554725 1
28.1829263563 23.7339053254 21.6991509999 1
32.4311652926 23.4063905325 21.7251265018 1
36.6794042290 23.0788757396 21.6902893026 1
40.9276431654 22.7513609467 21.6917258254 1
45.1758821017 22.4238461538 21.6702451061 1
17.6568743923 25.7790532544 21.7017157483 1
21.9051133286 25.4515384615 21.7238877852 1
26.1533522650 25.1240236686 21.7285102492 1
30.4015912014 24.7965088757 21.6811152858 1
34.6498301377 24.4689940828 21.7238448099 1
38.8980690741 24.1414792899 21.7036015086 1
43.1463080105 23.8139644970 21.6824483591 1
47.3945469468 23.4864497041 21.7138876967 1
19.8755392374 26.8416568047 21.7366960911 1
24.1237781737 26.5141420118 21.6975950076 1
28.3720171101 26.1866272189 21.7185050391 1
32.6202560465 25.8591124260 21.7266368350 1
36.8684949828 25.5315976331 21.7367287402 1
41.1167339192 25.2040828402 21.7428387995 1
45.3649728556 24.8765680473 21.7247067664 1
%endblock AtomicCoordinatesAndAtomicSpecies
