LatticeConstant 1.0 Ang
%block LatticeVectors
     14.9129574532  -1.2300000000   0.0000000000
      8.5216899732  12.3000000000   0.0000000000
      0.0000000000   0.0000000000  40.0000000000
%endblock LatticeVectors

NumberOfAtoms 148
NumberOfSpecies 1

%block ChemicalSpeciesLabel
1  6   C
%endblock ChemicalSpeciesLabel

AtomicCoordinatesFormat Ang

%block AtomicCoordinatesAndAtomicSpecies
1.4202816622 0.0000000000 18.2640212743 1
5.6811266488 0.0000000000 18.2977701405 1
9.9419716354 0.0000000000 18.2852441454 1
14.2028166221 0.0000000000 18.2604207468 1
3.5507041555 1.2300000000 18.2757843516 1
7.8115491421 1.2300000000 18.3049118533 1
12.0723941288 1.2300000000 18.2730157211 1
16.3332391154 1.2300000000 18.2894521531 1
5.6811266488 2.4600000000 18.2956861733 1
9.9419716354 2.4600000000 18.3206470183 1
14.2028166221 2.4600000000 18.2958461023 1
3.5507041555 3.6900000000 18.2978351232 1
7.8115491421 3.6900000000 18.2802481095 1
12.0723941288 3.6900000000 18.2990015015 1
16.3332391154 3.6900000000 18.2943546636 1
5.6811266488 4.9200000000 18.2834058177 1
9.9419716354 4.9200000000 18.3065908562 1
14.2028166221 4.9200000000 18.3084056252 1
18.4636616087 4.9200000000 18.2722313077 1
7.8115491421 6.1500000000 18.2674272244 1
12.0723941288 6.1500000000 18.2815142845 1
16.3332391154 6.1500000000 18.3079156978 1
5.6811266488 7.3800000000 18.2829981210 1
9.9419716354 7.3800000000 18.2660978265 1
14.2028166221 7.3800000000 18.2597318647 1
18.4636616087 7.3800000000 18.2882639257 1
7.8115491421 8.6100000000 18.3010572118 1
12.0723941288 8.6100000000 18.2845844197 1
16.3332391154 8.6100000000 18.2884557103 1
20.5940841020 8.6100000000 18.2723731960 1
9.9419716354 9.8400000000 18.2868490291 1
14.2028166221 9.8400000000 18.2704376582 1
18.4636616087 9.8400000000 18.3163502293 1
7.8115491421 11.0700000000 18.2773105931 1
12.0723941288 11.0700000000 18.2988611781 1
16.3332391154 11.0700000000 18.2896855199 1
20.5940841020 11.0700000000 18.2722091225 1
2.8405633244 0.0000000000 18.2777777353 1
7.1014083110 0.0000000000 18.2718831583 1
11.3622532977 0.0000000000 18.2648013523 1
15.6230982843 0.0000000000 18.2654035151 1
4.9709858177 1.2300000000 18.3008777916 1
9.2318308043 1.2300000000 18.2897825707 1
13.4926757910 1.2300000000 18.2574688597 1
2.8405633244 2.4600000000 18.2408053207 1
7.1014083110 2.4600000000 18.2535459324 1
11.3622532977 2.4600000000 18.2774023335 1
15.6230982843 2.4600000000 18.2667630176 1
4.9709858177 3.6900000000 18.2614457542 1
9.2318308043 3.6900000000 18.2892345327 1
13.4926757910 3.6900000000 18.2942468563 1
17.7535207776 3.6900000000 18.3087154945 1
7.1014083110 4.9200000000 18.2790611215 1
11.3622532977 4.9200000000 18.3133536669 1
15.6230982843 4.9200000000 18.2942065579 1
4.9709858177 6.1500000000 18.3064498299 1
9.2318308043 6.1500000000 18.2533824055 1
13.4926757910 6.1500000000 18.2515728463 1
17.7535207776 6.1500000000 18.2762776975 1
7.1014083110 7.3800000000 18.2759356260 1
11.3622532977 7.3800000000 18.2893014329 1
15.6230982843 7.3800000000 18.2791153578 1
19.8839432709 7.3800000000 18.3102155024 1
9.2318308043 8.6100000000 18.2686504558 1
13.4926757910 8.6100000000 18.3016733650 1
17.7535207776 8.6100000000 18.2792447065 1
7.1014083110 9.8400000000 18.2362668830 1
11.3622532977 9.8400000000 18.2771075300 1
15.6230982843 9.8400000000 18.2884876079 1
19.8839432709 9.8400000000 18.2798333189 1
9.2318308043 11.0700000000 18.2807215778 1
13.4926757910 11.0700000000 18.2951721798 1
17.7535207776 11.0700000000 18.2931334215 1
22.0143657642 11.0700000000 18.3177032112 1
3.7042481190 0.6316216216 21.7234008690 1
7.9075141193 -0.0664864865 21.7611065740 1
12.1107801196 -0.7645945946 21.7068078151 1
1.8041415709 2.1940540541 21.7065297034 1
6.0074075712 1.4959459459 21.7029356631 1
10.2106735715 0.7978378378 21.7088770954 1
14.4139395719 0.0997297297 21.7201154194 1
4.1073010231 3.0583783784 21.7058272995 1
8.3105670235 2.3602702703 21.7098831069 1
12.5138330238 1.6621621622 21.7366783480 1
6.4104604754 3.9227027027 21.6837022732 1
10.6137264757 3.2245945946 21.7031952540 1
14.8169924760 2.5264864865 21.6988330609 1
4.5103539273 5.4851351351 21.7210566346 1
8.7136199276 4.7870270270 21.6856082928 1
12.9168859279 4.0889189189 21.7169651257 1
17.1201519282 3.3908108108 21.7512958715 1
6.8135133795 6.3494594595 21.6974791338 1
11.0167793798 5.6513513514 21.6968838840 1
15.2200453801 4.9532432432 21.6964466160 1
9.1166728317 7.2137837838 21.7129856654 1
13.3199388320 6.5156756757 21.6908032650 1
17.5232048324 5.8175675676 21.7399755880 1
7.2165662836 8.7762162162 21.6936949830 1
11.4198322840 8.0781081081 21.7105618389 1
15.6230982843 7.3800000000 21.7035277743 1
19.8263642846 6.6818918919 21.6876743657 1
9.5197257359 9.6405405405 21.6934451713 1
13.7229917362 8.9424324324 21.7182726676 1
17.9262577365 8.2443243243 21.7293067847 1
11.8228851881 10.5048648649 21.6965216985 1
16.0261511884 9.8067567568 21.6931022258 1
20.2294171887 9.1086486486 21.6832967478 1
9.9227786400 12.0672972973 21.7121400243 1
14.1260446403 11.3691891892 21.7056456754 1
18.3293106406 10.6710810811 21.7244739647 1
22.5325766410 9.9729729730 21.7179954643 1
0.9020707855 1.0970270270 21.7110033750 1
5.1053367858 0.3989189189 21.7246330331 1
9.3086027861 -0.2991891892 21.7244013376 1
13.5118687864 -0.9972972973 21.7127849644 1
3.2052302377 1.9613513514 21.7079888666 1
7.4084962380 1.2632432432 21.6881770350 1
11.6117622383 0.5651351351 21.6838146781 1
5.5083896899 2.8256756757 21.6859501728 1
9.7116556902 2.1275675676 21.7130194173 1
13.9149216905 1.4294594595 21.6956761457 1
3.6082831418 4.3881081081 21.7415815075 1
7.8115491421 3.6900000000 21.7166874807 1
12.0148151424 2.9918918919 21.6982306930 1
16.2180811428 2.2937837838 21.6980304082 1
5.9114425940 5.2524324324 21.7087986760 1
10.1147085944 4.5543243243 21.7070304985 1
14.3179745947 3.8562162162 21.7090776874 1
8.2146020463 6.1167567568 21.7399933788 1
12.4178680466 5.4186486486 21.7140918255 1
16.6211340469 4.7205405405 21.7101773671 1
6.3144954982 7.6791891892 21.7223965345 1
10.5177614985 6.9810810811 21.7128030043 1
14.7210274988 6.2829729730 21.6913555214 1
18.9242934991 5.5848648649 21.7277925491 1
8.6176549504 8.5435135135 21.7262053610 1
12.8209209507 7.8454054054 21.7417480104 1
17.0241869510 7.1472972973 21.6827761967 1
10.9208144026 9.4078378378 21.6974072266 1
15.1240804030 8.7097297297 21.7127938442 1
19.3273464033 8.0116216216 21.7259831085 1
9.0207078546 10.9702702703 21.7053179654 1
13.2239738549 10.2721621622 21.6975657138 1
17.4272398552 9.5740540541 21.7193283857 1
21.6305058555 8.8759459459 21.6894252460 1
11.3238673068 11.8345945946 21.6964090704 1
15.5271333071 11.1364864865 21.7049859093 1
19.7303993074 10.4383783784 21.7177786978 1
%endblock AtomicCoordinatesAndAtomicSpecies
